File "./GRP116-1/SMT.v", line 6, characters 0-15:
Warning: Interpreting this declaration as if a global declaration prefixed by
"Local", i.e. as a global declaration which shall not be available without
qualification when imported. [local-declaration,vernacular,default]
File "./GRP116-1/SMT.v", line 7, characters 0-22:
Warning: Interpreting this declaration as if a global declaration prefixed by
"Local", i.e. as a global declaration which shall not be available without
qualification when imported. [local-declaration,vernacular,default]
File "./GRP116-1/SMT.v", line 8, characters 0-32:
Warning: Interpreting this declaration as if a global declaration prefixed by
"Local", i.e. as a global declaration which shall not be available without
qualification when imported. [local-declaration,vernacular,default]
File "./GRP116-1/SMT.v", line 16, characters 2-6:
Warning: Discarding the following lemma (unsupported):
(forall X Y Z0 : Z,
 multiply X
   (multiply (multiply X (multiply (multiply X Y) Z0))
      (multiply identity (multiply Z0 Z0))) = Y)
[SMTCoq-discarding-lemma,SMTCoq,default]
veriT --proof-prune --proof-merge --proof-with-sharing --cnf-definitional --disable-ackermann --input=smtlib2 --proof=/tmp/verit_coqbb4b3a.vtlog /tmp/verit_coqbb4b3a.smt2 2> /tmp/warnings_veritfb218a.log
veriT dev - the SMT-solver veriT (UFRN/LORIA).
success
success
success
success
success
unknown
success
success
Verit = 0.00006
(set-option :print-success true)
(set-option :produce-assignments true)
(set-option :produce-proofs true)
(set-logic QF_UFLIA)
(declare-fun op_1 () Int)
(declare-fun op_0 () Int)
(declare-fun op_2 (Int Int ) Int)
(assert (not (= (op_2 op_0 op_1) op_1)))
(check-sat)
(get-model)
File "./GRP116-1/SMT.v", line 16, characters 2-5:
Error:
CVC4 returned sat. Here is the model:

identity := 1
a := 0
multiply := fun _ _ => -1

